; benchmark generated from python API
(set-info :status unknown)
(declare-datatypes ((RealState 0)) (((RMk1 (rval1 Real)) (RMk2 (rval2 Real)))))
 (assert
 (forall ((|v11:0| Real) )(exists ((|v10:1_st| RealState) (val!3108 Real) )(forall ((|v9:2| Real) )(exists ((|v8:3_st| RealState) (val!3109 Real) )(forall ((|v7:4| Real) )(exists ((|v6:5_st| RealState) (val!3110 Real) )(forall ((|v5:6| Real) )(exists ((|v4:7_st| RealState) (val!3111 Real) )(forall ((|v3:8| Real) )(exists ((|v2:9_st| RealState) (val!3112 Real) )(forall ((|v1:10| Real) )(exists ((|v0:11_st| RealState) (val!3113 Real) )(let ((?x2992 (- 12.0)))
 (let ((?x1082 (+ (+ (+ (* 8.0 |v7:4|) (rval2 |v6:5_st|)) (* (- 14.0) (rval2 |v4:7_st|))) (* (- 3.0) |v11:0|))))
 (let ((?x1898 (rval2 |v4:7_st|)))
 (let ((?x2685 (- 15.0)))
 (let ((?x2962 (* ?x2685 ?x1898)))
 (let ((?x1808 (+ (+ (+ (* 11.0 (rval2 |v6:5_st|)) (* (- 13.0) ?x1898)) ?x2962) (* 12.0 (rval2 |v6:5_st|)))))
 (let ((?x451 (rval2 |v6:5_st|)))
 (let ((?x2693 (+ (+ (+ (* 8.0 |v3:8|) (* 5.0 |v7:4|)) (* 7.0 (rval2 |v0:11_st|))) ?x451)))
 (let ((?x1542 (* 17.0 |v3:8|)))
 (let ((?x1267 (+ (+ (* 5.0 (rval2 |v2:9_st|)) (* (- 17.0) |v11:0|)) (* (- 16.0) |v11:0|))))
 (let (($x1172 (and (or (<= (+ ?x1267 ?x1542) 8.0) (<= ?x2693 1.0)) (or (<= ?x1808 3.0) (<= ?x1082 ?x2992)))))
 (let (($x2928 (<= (+ (+ (+ (* 9.0 (rval2 |v0:11_st|)) ?x2962) ?x1542) (* ?x2992 (rval2 |v10:1_st|))) 19.0)))
 (let ((?x1580 (- 16.0)))
 (let ((?x1307 (* 11.0 |v11:0|)))
 (let (($x514 (<= (+ (+ (+ |v1:10| (* 2.0 ?x451)) (* (- 11.0) |v5:6|)) ?x1307) ?x1580)))
 (let ((?x931 (+ (+ (* 6.0 |v9:2|) (* (- 10.0) ?x451)) (* (- 6.0) (rval2 |v0:11_st|)))))
 (let (($x2420 (and (and (<= (+ ?x931 (* (- 5.0) |v9:2|)) 13.0) (and $x514 $x2928)) $x1172)))
 (let ((?x2032 (+ (+ (* 14.0 |v3:8|) (* (- 14.0) ?x1898)) (* (- 13.0) (rval2 |v8:3_st|)))))
 (let ((?x1457 (+ (+ (+ (* (- 13.0) |v9:2|) (* 2.0 ?x451)) (* (- 7.0) |v1:10|)) (* ?x2685 (rval2 |v2:9_st|)))))
 (let ((?x2171 (- 7.0)))
 (let ((?x464 (* ?x2171 |v5:6|)))
 (let ((?x3103 (+ (+ (+ (* 19.0 |v1:10|) (* ?x1580 |v9:2|)) (* (- 18.0) (rval2 |v8:3_st|))) ?x464)))
 (let (($x2970 (<= (+ (+ (+ (* (- 13.0) |v3:8|) |v9:2|) (* 20.0 (rval2 |v10:1_st|))) |v3:8|) 12.0)))
 (let (($x175 (and (or $x2970 (<= ?x3103 20.0)) (or (<= ?x1457 20.0) (<= (+ ?x2032 (* (- 8.0) ?x1898)) 16.0)))))
 (let ((?x608 (rval2 |v0:11_st|)))
 (let ((?x868 (* 6.0 ?x608)))
 (let (($x2268 (<= (+ (+ (+ (* 5.0 |v3:8|) (* (- 6.0) |v7:4|)) (* ?x2992 |v5:6|)) ?x868) 9.0)))
 (let ((?x109 (- 2.0)))
 (let ((?x1663 (rval2 |v2:9_st|)))
 (let ((?x1248 (- 19.0)))
 (let ((?x918 (* ?x1248 ?x1663)))
 (let (($x1822 (<= (+ (+ (+ (* 15.0 ?x451) (* ?x1580 (rval2 |v8:3_st|))) |v11:0|) ?x918) ?x109)))
 (let ((?x488 (- 20.0)))
 (let ((?x1176 (- 13.0)))
 (let ((?x1192 (* ?x1176 ?x1898)))
 (let (($x1453 (and (<= (+ (+ (+ (* (- 4.0) |v1:10|) ?x918) (* ?x1580 ?x1898)) ?x1192) ?x488) $x1822)))
 (let ((?x2395 (- 10.0)))
 (let ((?x958 (* ?x2395 |v7:4|)))
 (let ((?x2136 (+ (+ (+ (* ?x1176 ?x451) (* (- 6.0) |v11:0|)) (* 5.0 (rval2 |v10:1_st|))) ?x958)))
 (let ((?x757 (+ (+ (+ (* 4.0 |v11:0|) (* (- 18.0) ?x1898)) ?x958) (* (- 4.0) ?x608))))
 (let ((?x559 (+ (+ (+ (* 0.0 ?x608) (* (- 5.0) |v11:0|)) (* (- 4.0) ?x451)) (* ?x1248 (rval2 |v8:3_st|)))))
 (let ((?x1455 (* 8.0 |v11:0|)))
 (let (($x2034 (<= (+ (+ (+ (* 2.0 ?x1898) (* 20.0 |v7:4|)) (* 2.0 ?x1663)) ?x1455) ?x2992)))
 (let ((?x2701 (- 8.0)))
 (let ((?x1565 (+ (+ (+ (* 15.0 ?x1663) (* 19.0 |v11:0|)) (* (- 11.0) |v1:10|)) (* 16.0 |v5:6|))))
 (let (($x1897 (and (or (<= ?x1565 ?x2701) $x2034) (and (<= ?x559 18.0) (<= ?x757 7.0)))))
 (let ((?x1953 (- 14.0)))
 (let ((?x1236 (- 11.0)))
 (let ((?x1191 (* ?x1236 |v5:6|)))
 (let ((?x1801 (+ (+ (+ (* 7.0 |v1:10|) (* 18.0 (rval2 |v10:1_st|))) (* (- 6.0) |v5:6|)) ?x1191)))
 (let ((?x1848 (+ (+ (+ (* ?x2992 ?x1898) (* ?x2685 |v3:8|)) (* 5.0 (rval2 |v8:3_st|))) (* ?x1236 (rval2 |v10:1_st|)))))
 (let ((?x2324 (+ (+ (+ (* (- 1.0) ?x608) (* (- 17.0) ?x608)) (* 0.0 |v11:0|)) (* 2.0 |v11:0|))))
 (let ((?x1951 (+ (+ (+ (* ?x2992 |v5:6|) (* 0.0 (rval2 |v10:1_st|))) (* ?x2171 (rval2 |v8:3_st|))) (* 12.0 |v7:4|))))
 (let (($x1322 (or (or (<= ?x1951 15.0) (<= ?x2324 ?x1236)) (and (<= ?x1848 18.0) (<= ?x1801 ?x1953)))))
 (let (($x838 (and (or (and $x1322 $x1897) (<= ?x2136 16.0)) (and (and (or $x1453 $x2268) $x175) $x2420))))
 (let ((?x1188 (- 1.0)))
 (let ((?x2286 (* ?x2395 ?x451)))
 (let (($x2640 (<= (+ (+ (+ (* ?x1580 ?x1663) (* 3.0 ?x451)) (* 9.0 |v5:6|)) ?x2286) ?x1188)))
 (let ((?x1719 (* 6.0 |v5:6|)))
 (let (($x1053 (<= (+ (+ (+ (* ?x2992 ?x1663) (* 18.0 ?x1898)) (* 10.0 ?x1898)) ?x1719) 8.0)))
 (let ((?x524 (- 18.0)))
 (let ((?x2792 (- 6.0)))
 (let ((?x477 (* ?x2792 |v7:4|)))
 (let (($x599 (<= (+ (+ (+ (* 10.0 |v9:2|) (* 0.0 |v3:8|)) (* 3.0 ?x1898)) ?x477) ?x524)))
 (let ((?x225 (+ (+ (+ (* 8.0 |v5:6|) (* ?x1248 |v1:10|)) (* 3.0 ?x608)) (* 18.0 |v3:8|))))
 (let ((?x1175 (rval2 |v10:1_st|)))
 (let (($x2969 (<= (+ (+ (+ (* 16.0 ?x1663) (* 10.0 |v11:0|)) (* 5.0 ?x1175)) ?x1175) 16.0)))
 (let (($x2046 (<= (+ (+ (+ (* 11.0 |v5:6|) ?x1191) (* 6.0 ?x1663)) (* 17.0 ?x1898)) ?x109)))
 (let (($x1497 (<= (+ (+ (+ (* ?x488 (rval2 |v8:3_st|)) |v1:10|) (* ?x524 |v3:8|)) (* ?x1188 |v7:4|)) ?x2701)))
 (let (($x2413 (and (and (or $x1497 $x2046) $x2969) (or (or (<= ?x225 ?x1236) $x599) (and $x1053 $x2640)))))
 (let ((?x1116 (+ (+ (+ (* (- 9.0) |v1:10|) (* 19.0 |v3:8|)) (* 9.0 |v7:4|)) (* ?x2792 (rval2 |v8:3_st|)))))
 (let ((?x2389 (* 5.0 |v11:0|)))
 (let (($x2569 (<= (+ (+ (+ (* 9.0 |v11:0|) (* 3.0 ?x1663)) (* ?x109 |v1:10|)) ?x2389) ?x2792)))
 (let ((?x486 (* ?x2792 |v5:6|)))
 (let (($x2176 (<= (+ (+ (+ (* 0.0 |v9:2|) (* 13.0 ?x608)) (* 13.0 |v11:0|)) ?x486) 17.0)))
 (let ((?x145 (* ?x2685 |v1:10|)))
 (let (($x3153 (<= (+ (+ (+ (* ?x2171 |v9:2|) (* 0.0 ?x1175)) (* (- 5.0) ?x608)) ?x145) ?x488)))
 (let ((?x2806 (* 0.0 |v9:2|)))
 (let ((?x146 (+ (+ (+ (* ?x524 |v3:8|) (* 19.0 (rval2 |v8:3_st|))) (* 8.0 ?x451)) ?x2806)))
 (let ((?x151 (* 2.0 |v3:8|)))
 (let ((?x702 (+ (+ (+ (* ?x1236 (rval2 |v8:3_st|)) (* 14.0 ?x1175)) (* ?x109 ?x608)) ?x151)))
 (let ((?x277 (+ (+ (+ (* ?x1236 ?x1663) (* ?x109 |v3:8|)) (* 6.0 ?x1663)) (* ?x2701 ?x1663))))
 (let ((?x2803 (rval2 |v8:3_st|)))
 (let ((?x740 (* ?x2171 ?x2803)))
 (let (($x2309 (<= (+ (+ (+ (* 5.0 ?x608) (* ?x109 |v5:6|)) (* 0.0 ?x1663)) ?x740) ?x2992)))
 (let (($x781 (or (or $x2309 (<= ?x277 16.0)) (or (<= ?x702 ?x1176) (<= ?x146 14.0)))))
 (let (($x1677 (and (and $x781 (or (or $x3153 $x2176) (or $x2569 (<= ?x1116 12.0)))) $x2413)))
 (let ((?x2748 (* 5.0 ?x1175)))
 (let (($x624 (<= (+ (+ (+ (* ?x1953 ?x451) (* 3.0 |v7:4|)) (* 5.0 |v9:2|)) ?x2748) ?x2792)))
 (let (($x1423 (not (= |v0:11_st| (RMk1 val!3113)))))
 (let (($x937 (not (= |v2:9_st| (RMk1 val!3112)))))
 (let (($x1277 (not (= |v4:7_st| (RMk1 val!3111)))))
 (let (($x1151 (not (= |v6:5_st| (RMk1 val!3110)))))
 (let (($x1011 (not (= |v8:3_st| (RMk1 val!3109)))))
 (let (($x439 (not (= |v10:1_st| (RMk1 val!3108)))))
 (and $x439 $x1011 $x1151 $x1277 $x937 $x1423 (and (or $x624 $x1677) $x838))))))))))))))))))))))))))))))))))))))))))))))))))))))))))))))))))))))))))))))))))))))))))))))))))
 )
 )
 )
 )
 )
 )
 )
 )
 )
 )
 )
 )
(check-sat)
